11970.0
1 1 1 1 1 1 1 1 1 1 0 1 1 1 1 1 1 1 1 1 
44 45 46 47 48 49 50 51 
20 
12 15 16 17 
64 
5 6 7 
88 90 
23 27 28 29 30 33 34 35 36 37 38 
39 40 43 52 53 54 55 56 57 58 59 67 
8 9 10 11 13 14 18 
62 69 70 72 76 

60 61 63 65 66 68 71 73 
19 21 22 24 25 26 
75 77 78 79 80 
31 32 
81 82 83 84 85 86 87 89 
2 4 
0 1 3 74 95 
91 92 93 94 96 97 98 99 
41 42 
